(set-info :origin "SVCOMP13 benchmarks generated by Arie Gurfinkel")
(set-info :status unsat)
(set-logic HORN)
(declare-fun cp-rel-entry () Bool)
(declare-fun cp-rel-bb2.i.i16.i.i () Bool)
(declare-fun cp-rel-bb1.i.i (Real Real Real Real Real) Bool)
(assert |cp-rel-entry|)
(assert (forall ((?A Real) (?B Real) (?C Real) (?D Real) (?E Real) (?F Bool) )(let (($x580299 (and |cp-rel-entry| (<= ?E 0.0) (>= ?D 1.0) (<= ?D 1.0) (>= ?C 0.0) (<= ?C 0.0) (>= ?B 1.0) (<= ?B 1.0) (>= ?A 0.0) (<= ?A 0.0) (= ?F true) (>= ?E 0.0))))
(=> $x580299 (|cp-rel-bb1.i.i| ?A ?B ?C ?D ?E))))
)
(assert (forall ((?A Real) (?B Real) (?C Real) (?D Real) (?E Real) (?F Real) (?G Real) (?H Real) (?I Real) (?J Real) (?K Bool) (?L Bool) (?M Bool) (?N Bool) (?O Bool) (?P Bool) (?Q Real) (?R Real) (?S Bool) (?T Bool) (?U Bool) (?V Bool) (?W Bool) (?X Bool) (?Y Real) (?Z Real) (?A1 Bool) (?B1 Bool) (?C1 Bool) (?D1 Bool) (?E1 Bool) (?F1 Bool) (?G1 Bool) (?H1 Bool) (?I1 Bool) (?J1 Bool) (?K1 Bool) (?L1 Bool) (?M1 Bool) (?N1 Real) (?O1 Real) (?P1 Real) (?Q1 Real) (?R1 Bool) (?S1 Bool) (?T1 Bool) (?U1 Bool) (?V1 Bool) (?W1 Bool) (?X1 Bool) (?Y1 Bool) (?Z1 Bool) (?A2 Bool) (?B2 Real) (?C2 Bool) (?D2 Bool) (?E2 Bool) (?F2 Bool) (?G2 Bool) (?H2 Bool) (?I2 Real) (?J2 Bool) (?K2 Real) (?L2 Real) (?M2 Bool) (?N2 Real) (?O2 Real) (?P2 Bool) (?Q2 Real) (?R2 Bool) (?S2 Bool) (?T2 Bool) (?U2 Bool) )(let (($x578263 (|cp-rel-bb1.i.i| ?F ?G ?H ?I ?J)))
(let (($x573383 (or (not ?K) (and ?L ?M (not ?N)))))
(let (($x485810 (or (not ?K) ?M)))
(let (($x646416 (not ?O)))
(let (($x851568 (or $x646416 (and ?K ?P (<= ?Q ?R) (>= ?Q ?R)) (and ?L ?S ?N (<= ?Q ?B) (>= ?Q ?B)))))
(let (($x546530 (or $x646416 (and ?P (not ?S)) (and ?S (not ?P)))))
(let (($x521881 (or (not ?T) (and ?O ?U (not ?V)))))
(let (($x558581 (or (not ?T) ?U)))
(let (($x174031 (not ?W)))
(let (($x259532 (or $x174031 (and ?T ?X (<= ?Y ?Z) (>= ?Y ?Z)) (and ?O ?A1 ?V (<= ?Y ?A) (>= ?Y ?A)))))
(let (($x298787 (or $x174031 (and ?X (not ?A1)) (and ?A1 (not ?X)))))
(let (($x120532 (or (not ?B1) (and ?W ?C1 ?D1))))
(let (($x371571 (or (not ?B1) ?C1)))
(let (($x284361 (or (not ?E1) (and ?B1 ?F1 ?G1) (and ?W ?H1 (not ?D1)))))
(let (($x624790 (or (not ?E1) (and ?F1 (not ?H1)) (and ?H1 (not ?F1)))))
(let (($x126082 (or (not ?I1) (and ?E1 ?J1 (not ?K1)))))
(let (($x306928 (or (not ?I1) ?J1)))
(let (($x582527 (>= ?P1 ?Q)))
(let (($x868497 (<= ?P1 ?Q)))
(let (($x546218 (and ?B1 ?S1 (not ?G1) (<= ?N1 0.0) (>= ?N1 0.0) (<= ?O1 0.0) (>= ?O1 0.0) $x868497 $x582527)))
(let (($x343538 (and ?E1 ?R1 ?K1 (<= ?N1 ?E) (>= ?N1 ?E) (<= ?O1 ?D) (>= ?O1 ?D) $x868497 $x582527)))
(let (($x170088 (and ?I1 ?M1 (<= ?N1 ?E) (>= ?N1 ?E) (<= ?O1 ?D) (>= ?O1 ?D) (<= ?P1 ?Q1) (>= ?P1 ?Q1))))
(let (($x878396 (not ?L1)))
(let (($x66561 (or $x878396 (and ?M1 (not ?R1) (not ?S1)) (and ?R1 (not ?M1) (not ?S1)) (and ?S1 (not ?M1) (not ?R1)))))
(let (($x81717 (or (not ?T1) (and ?L1 ?U1 ?V1))))
(let (($x196850 (or (not ?T1) ?U1)))
(let (($x380479 (or (not ?W1) (and ?T1 ?X1 (not ?Y1)))))
(let (($x27416 (or (not ?W1) ?X1)))
(let (($x535876 (or (not ?Z1) (and ?W1 ?A2 (<= ?B2 ?N1) (>= ?B2 ?N1)) (and ?T1 ?C2 ?Y1 (<= ?B2 1.0) (>= ?B2 1.0)) (and ?L1 ?D2 (not ?V1) (<= ?B2 ?N1) (>= ?B2 ?N1)))))
(let (($x111727 (or (not ?Z1) (and ?A2 (not ?C2) (not ?D2)) (and ?C2 (not ?A2) (not ?D2)) (and ?D2 (not ?A2) (not ?C2)))))
(let (($x302907 (or (not ?E2) (and ?Z1 ?F2 (not ?G2)))))
(let (($x488890 (or (not ?E2) ?F2)))
(let (($x99355 (and ?Z1 ?G2 (<= ?F ?Y) (>= ?F ?Y) (<= ?G ?P1) (>= ?G ?P1) (<= ?H 0.0) (>= ?H 0.0) (<= ?I ?O1) (>= ?I ?O1) (<= ?J ?B2) (>= ?J ?B2))))
(let (($x358713 (and ?E2 ?H2 (<= ?F ?Y) (>= ?F ?Y) (<= ?G ?P1) (>= ?G ?P1) (<= ?H 1.0) (>= ?H 1.0) (<= ?I ?O1) (>= ?I ?O1) (<= ?J ?B2) (>= ?J ?B2))))
(let (($x402983 (= ?N (= ?I2 0.0))))
(let (($x203565 (= ?K2 (ite ?J2 1.0 0.0))))
(let (($x210083 (= ?V (= ?L2 0.0))))
(let (($x186580 (= ?Z (ite ?M2 1.0 0.0))))
(let (($x259923 (= ?D1 (= ?N2 0.0))))
(let (($x341615 (= ?G1 (= ?O2 0.0))))
(let (($x391554 (= ?P2 (not (<= ?Q 0.0)))))
(let (($x105071 (= ?Q2 (+ (~ 1.0) ?Q))))
(let (($x89833 (= ?Q1 (ite ?P2 ?Q2 ?Q))))
(let (($x322063 (= ?R2 (not (= ?O1 0.0)))))
(let (($x487873 (= ?S2 (= ?N1 0.0))))
(let (($x111976 (= ?V1 (and ?R2 ?S2))))
(let (($x512756 (= ?Y1 (not (<= ?P1 1.0)))))
(let (($x309785 (= ?T2 (= ?Y 0.0))))
(let (($x356978 (= ?U2 (= ?B2 0.0))))
(let (($x112269 (= ?G2 (or ?U2 ?T2))))
(let (($x510570 (and (|cp-rel-bb1.i.i| ?A ?B ?C ?D ?E) $x112269 $x356978 $x309785 $x512756 $x111976 $x487873 $x322063 $x89833 $x105071 $x391554 (= ?K1 (= ?E 0.0)) $x341615 $x259923 $x186580 (= ?M2 (= ?A 0.0)) $x210083 (= ?R (+ ?K2 ?B)) $x203565 (= ?J2 (not (<= 2.0 ?B))) $x402983 (or $x358713 $x99355) $x488890 $x302907 $x111727 $x535876 $x27416 $x380479 $x196850 $x81717 $x66561 (or $x878396 $x170088 $x343538 $x546218) $x306928 $x126082 $x624790 $x284361 $x371571 $x120532 $x298787 $x259532 $x558581 $x521881 $x546530 $x851568 $x485810 $x573383 (= ?H2 (= ?C 0.0)))))
(=> $x510570 $x578263)))))))))))))))))))))))))))))))))))))))))))))))))))))
)
(assert (forall ((?A Real) (?B Real) (?C Real) (?D Real) (?E Real) (?F Bool) (?G Bool) (?H Bool) (?I Bool) (?J Bool) (?K Bool) (?L Real) (?M Real) (?N Bool) (?O Bool) (?P Bool) (?Q Bool) (?R Bool) (?S Bool) (?T Real) (?U Real) (?V Bool) (?W Bool) (?X Bool) (?Y Bool) (?Z Bool) (?A1 Bool) (?B1 Bool) (?C1 Bool) (?D1 Bool) (?E1 Bool) (?F1 Bool) (?G1 Bool) (?H1 Bool) (?I1 Real) (?J1 Real) (?K1 Real) (?L1 Real) (?M1 Bool) (?N1 Bool) (?O1 Bool) (?P1 Bool) (?Q1 Bool) (?R1 Bool) (?S1 Bool) (?T1 Bool) (?U1 Bool) (?V1 Bool) (?W1 Real) (?X1 Bool) (?Y1 Bool) (?Z1 Bool) (?A2 Bool) (?B2 Bool) (?C2 Bool) (?D2 Real) (?E2 Bool) (?F2 Real) (?G2 Real) (?H2 Bool) (?I2 Real) (?J2 Real) (?K2 Bool) (?L2 Real) (?M2 Bool) (?N2 Bool) (?O2 Bool) (?P2 Bool) )(let (($x573383 (or (not ?F) (and ?G ?H (not ?I)))))
(let (($x485810 (or (not ?F) ?H)))
(let (($x646416 (not ?J)))
(let (($x901674 (or $x646416 (and ?F ?K (<= ?L ?M) (>= ?L ?M)) (and ?G ?N ?I (<= ?L ?B) (>= ?L ?B)))))
(let (($x546530 (or $x646416 (and ?K (not ?N)) (and ?N (not ?K)))))
(let (($x521881 (or (not ?O) (and ?J ?P (not ?Q)))))
(let (($x558581 (or (not ?O) ?P)))
(let (($x174031 (not ?R)))
(let (($x302742 (or $x174031 (and ?O ?S (<= ?T ?U) (>= ?T ?U)) (and ?J ?V ?Q (<= ?T ?A) (>= ?T ?A)))))
(let (($x298787 (or $x174031 (and ?S (not ?V)) (and ?V (not ?S)))))
(let (($x120532 (or (not ?W) (and ?R ?X ?Y))))
(let (($x371571 (or (not ?W) ?X)))
(let (($x284361 (or (not ?Z) (and ?W ?A1 ?B1) (and ?R ?C1 (not ?Y)))))
(let (($x624790 (or (not ?Z) (and ?A1 (not ?C1)) (and ?C1 (not ?A1)))))
(let (($x126082 (or (not ?D1) (and ?Z ?E1 (not ?F1)))))
(let (($x306928 (or (not ?D1) ?E1)))
(let (($x582527 (>= ?K1 ?L)))
(let (($x868497 (<= ?K1 ?L)))
(let (($x546218 (and ?W ?N1 (not ?B1) (<= ?I1 0.0) (>= ?I1 0.0) (<= ?J1 0.0) (>= ?J1 0.0) $x868497 $x582527)))
(let (($x251537 (and ?Z ?M1 ?F1 (<= ?I1 ?E) (>= ?I1 ?E) (<= ?J1 ?D) (>= ?J1 ?D) $x868497 $x582527)))
(let (($x322095 (and ?D1 ?H1 (<= ?I1 ?E) (>= ?I1 ?E) (<= ?J1 ?D) (>= ?J1 ?D) (<= ?K1 ?L1) (>= ?K1 ?L1))))
(let (($x878396 (not ?G1)))
(let (($x66561 (or $x878396 (and ?H1 (not ?M1) (not ?N1)) (and ?M1 (not ?H1) (not ?N1)) (and ?N1 (not ?H1) (not ?M1)))))
(let (($x81717 (or (not ?O1) (and ?G1 ?P1 ?Q1))))
(let (($x196850 (or (not ?O1) ?P1)))
(let (($x380479 (or (not ?R1) (and ?O1 ?S1 (not ?T1)))))
(let (($x27416 (or (not ?R1) ?S1)))
(let (($x535876 (or (not ?U1) (and ?R1 ?V1 (<= ?W1 ?I1) (>= ?W1 ?I1)) (and ?O1 ?X1 ?T1 (<= ?W1 1.0) (>= ?W1 1.0)) (and ?G1 ?Y1 (not ?Q1) (<= ?W1 ?I1) (>= ?W1 ?I1)))))
(let (($x111727 (or (not ?U1) (and ?V1 (not ?X1) (not ?Y1)) (and ?X1 (not ?V1) (not ?Y1)) (and ?Y1 (not ?V1) (not ?X1)))))
(let (($x302907 (or (not ?Z1) (and ?U1 ?A2 (not ?B2)))))
(let (($x488890 (or (not ?Z1) ?A2)))
(let (($x402983 (= ?I (= ?D2 0.0))))
(let (($x203565 (= ?F2 (ite ?E2 1.0 0.0))))
(let (($x210083 (= ?Q (= ?G2 0.0))))
(let (($x186580 (= ?U (ite ?H2 1.0 0.0))))
(let (($x259923 (= ?Y (= ?I2 0.0))))
(let (($x341615 (= ?B1 (= ?J2 0.0))))
(let (($x391554 (= ?K2 (not (<= ?L 0.0)))))
(let (($x105071 (= ?L2 (+ (~ 1.0) ?L))))
(let (($x89833 (= ?L1 (ite ?K2 ?L2 ?L))))
(let (($x322063 (= ?M2 (not (= ?J1 0.0)))))
(let (($x487873 (= ?N2 (= ?I1 0.0))))
(let (($x111976 (= ?Q1 (and ?M2 ?N2))))
(let (($x512756 (= ?T1 (not (<= ?K1 1.0)))))
(let (($x309785 (= ?O2 (= ?T 0.0))))
(let (($x356978 (= ?P2 (= ?W1 0.0))))
(let (($x112269 (= ?B2 (or ?P2 ?O2))))
(let (($x578263 (|cp-rel-bb1.i.i| ?A ?B ?C ?D ?E)))
(let (($x249679 (and $x578263 $x112269 $x356978 $x309785 $x512756 $x111976 $x487873 $x322063 $x89833 $x105071 $x391554 (= ?F1 (= ?E 0.0)) $x341615 $x259923 $x186580 (= ?H2 (= ?A 0.0)) $x210083 (= ?M (+ ?F2 ?B)) $x203565 (= ?E2 (not (<= 2.0 ?B))) $x402983 (not (= ?C2 true)) (= ?Z1 true) $x488890 $x302907 $x111727 $x535876 $x27416 $x380479 $x196850 $x81717 $x66561 (or $x878396 $x322095 $x251537 $x546218) $x306928 $x126082 $x624790 $x284361 $x371571 $x120532 $x298787 $x302742 $x558581 $x521881 $x546530 $x901674 $x485810 $x573383 (= ?C2 (= ?C 0.0)))))
(=> $x249679 |cp-rel-bb2.i.i16.i.i|)))))))))))))))))))))))))))))))))))))))))))))))))))
)
(assert (not cp-rel-bb2.i.i16.i.i))
(check-sat)
